0	0	0	1	0	0	1	0
0	0	1	0	0	0	0	0
0	0	0	0	1	0	0	0
0	0	0	0	0	0	1	0
0	0	0	0	0	1	1	0
0	0	0	0	0	0	0	1
0	0	0	0	0	0	0	0
1	0	0	0	0	0	0	0
8
1	15
5	10
3	9
4	5
20
2	3
3	4
4	5
5	8
9	10
50
10	60
20	100
30	120
8
4	9
3	8
5	10
6	9
2	3
15
4	20
2	20
7	70
7	100
20
5	80
4	65
4	15
4	78
8	20
7	30
5	25
10
5	2
4	8
5	4
8	25
